c defined variables: 12 14 23 32 49 50 51 52 53 54 56 57 58 59 60 61 62 63 64 65 66 67 68 69 70 71 72 73 74 75 76 77 78 80 81 82 83 84 85 86 87 88 89 90 91 92 94 95 
p cnf 424 526
a 1 2 3 4 5 6 7 8 9 10 11 0
e 17 18 19 20 21 22 25 27 29 31 36 37 40 41 44 45 48 55 79 93 12 14 23 32 49 50 51 52 53 54 56 57 58 59 60 61 62 63 64 65 66 67 68 69 70 71 72 73 74 75 76 77 78 80 81 82 83 84 85 86 87 88 89 90 91 92 94 95 373 374 375 376 377 378 379 380 381 382 383 384 385 386 387 388 389 390 391 392 393 394 395 396 397 398 399 400 401 402 403 404 405 406 407 408 409 410 411 412 413 414 415 416 417 418 419 420 421 422 423 424 0
d 16 1 2 3 4 0
d 15 1 2 3 4 0
d 28 1 2 3 4 9 10 11 0
d 24 1 2 3 4 9 10 11 0
d 26 1 2 3 4 9 10 11 0
d 30 1 2 3 4 9 10 11 0
d 42 5 6 7 8 0
d 39 1 2 3 4 0
d 47 1 2 3 4 0
d 43 1 2 3 4 0
d 34 5 6 7 8 0
d 33 5 6 7 8 0
d 35 1 2 3 4 0
d 13 1 2 3 4 0
d 46 5 6 7 8 0
d 38 5 6 7 8 0
376 -12 0
-376 12 0
373 -14 0
-373 14 0
-381 -23 0
381 23 0
384 -32 0
-384 32 0
385 -49 0
-385 49 0
-386 -50 0
386 50 0
387 -51 0
-387 51 0
-388 -52 0
388 52 0
389 -53 0
-389 53 0
-390 -54 0
390 54 0
-391 -56 0
391 56 0
-392 -57 0
392 57 0
373 -58 0
-373 58 0
373 -59 0
-373 59 0
395 -60 0
-395 60 0
398 -61 0
-398 61 0
401 -62 0
-401 62 0
404 -63 0
-404 63 0
407 -64 0
-407 64 0
408 -65 0
-408 65 0
373 -66 0
-373 66 0
410 -67 0
-410 67 0
398 -68 0
-398 68 0
401 -69 0
-401 69 0
404 -70 0
-404 70 0
413 -71 0
-413 71 0
414 -72 0
-414 72 0
373 -73 0
-373 73 0
395 -74 0
-395 74 0
398 -75 0
-398 75 0
401 -76 0
-401 76 0
404 -77 0
-404 77 0
417 -78 0
-417 78 0
373 -80 0
-373 80 0
395 -81 0
-395 81 0
398 -82 0
-398 82 0
401 -83 0
-401 83 0
404 -84 0
-404 84 0
420 -85 0
-420 85 0
421 -86 0
-421 86 0
373 -87 0
-373 87 0
395 -88 0
-395 88 0
398 -89 0
-398 89 0
401 -90 0
-401 90 0
404 -91 0
-404 91 0
424 -92 0
-424 92 0
373 -94 0
-373 94 0
373 -95 0
-373 95 0
-12 -1 0
-12 -2 0
-12 -3 0
-12 -4 0
12 1 2 3 4 0
12 14 0
-13 14 0
-14 -12 13 0
-17 -15 0
-17 -16 0
-17 11 0
-17 -10 0
-17 -9 0
17 15 16 -11 10 9 0
-18 -15 0
-18 16 0
-18 -11 0
-18 -10 0
-18 9 0
18 15 -16 11 10 -9 0
-19 15 0
-19 -16 0
-19 -11 0
-19 10 0
-19 -9 0
19 -15 16 11 -10 9 0
-20 15 0
-20 16 0
-20 -11 0
-20 -10 0
20 -15 -16 11 10 0
-21 15 0
-21 16 0
-21 -11 0
-21 10 0
-21 -9 0
21 -15 -16 11 -10 9 0
-22 15 0
-22 16 0
-22 11 0
-22 -10 0
-22 -9 0
22 -15 -16 -11 10 9 0
-17 23 0
-18 23 0
-19 23 0
-20 23 0
-21 23 0
-22 23 0
-23 17 18 19 20 21 22 0
-25 5 -24 0
-25 -5 24 0
25 5 24 0
25 -5 -24 0
-27 6 -26 0
-27 -6 26 0
27 6 26 0
27 -6 -26 0
-29 7 -28 0
-29 -7 28 0
29 7 28 0
29 -7 -28 0
-31 8 -30 0
-31 -8 30 0
31 8 30 0
31 -8 -30 0
-32 25 0
-32 27 0
-32 29 0
-32 31 0
32 -25 -27 -29 -31 0
-36 34 0
-36 -35 0
36 -34 35 0
-37 34 -35 0
-37 -34 35 0
37 34 35 0
37 -34 -35 0
-40 38 0
-40 -39 0
40 -38 39 0
-41 38 -39 0
-41 -38 39 0
41 38 39 0
41 -38 -39 0
-44 42 0
-44 -43 0
44 -42 43 0
-45 42 -43 0
-45 -42 43 0
45 42 43 0
45 -42 -43 0
-48 46 0
-48 -47 0
48 -46 47 0
-49 45 0
-49 48 0
49 -45 -48 0
-44 50 0
-49 50 0
-50 44 49 0
-51 41 0
-51 50 0
51 -41 -50 0
-40 52 0
-51 52 0
-52 40 51 0
-53 37 0
-53 52 0
53 -37 -52 0
-36 54 0
-53 54 0
-54 36 53 0
-55 33 0
-55 54 0
55 -33 -54 0
32 56 0
-55 56 0
-56 -32 55 0
23 57 0
-56 57 0
-57 -23 56 0
13 58 0
-57 58 0
-58 -13 57 0
-59 14 0
-59 58 0
59 -14 -58 0
-60 5 -1 0
-60 -5 1 0
60 5 1 0
60 -5 -1 0
-61 6 -2 0
-61 -6 2 0
61 6 2 0
61 -6 -2 0
-62 7 -3 0
-62 -7 3 0
62 7 3 0
62 -7 -3 0
-63 8 -4 0
-63 -8 4 0
63 8 4 0
63 -8 -4 0
-64 60 0
-64 61 0
-64 62 0
-64 63 0
64 -60 -61 -62 -63 0
-65 42 -43 0
-65 -42 43 0
65 42 43 0
65 -42 -43 0
64 66 0
-65 66 0
-66 -64 65 0
-67 1 -5 0
-67 -1 5 0
67 1 5 0
67 -1 -5 0
-68 2 -6 0
-68 -2 6 0
68 2 6 0
68 -2 -6 0
-69 3 -7 0
-69 -3 7 0
69 3 7 0
69 -3 -7 0
-70 4 -8 0
-70 -4 8 0
70 4 8 0
70 -4 -8 0
-71 67 0
-71 68 0
-71 69 0
-71 70 0
71 -67 -68 -69 -70 0
-72 39 -38 0
-72 -39 38 0
72 39 38 0
72 -39 -38 0
71 73 0
-72 73 0
-73 -71 72 0
-74 1 -5 0
-74 -1 5 0
74 1 5 0
74 -1 -5 0
-75 2 -6 0
-75 -2 6 0
75 2 6 0
75 -2 -6 0
-76 3 -7 0
-76 -3 7 0
76 3 7 0
76 -3 -7 0
-77 4 -8 0
-77 -4 8 0
77 4 8 0
77 -4 -8 0
-78 74 0
-78 75 0
-78 76 0
-78 77 0
78 -74 -75 -76 -77 0
-79 47 -46 0
-79 -47 46 0
79 47 46 0
79 -47 -46 0
78 80 0
-79 80 0
-80 -78 79 0
-81 5 -1 0
-81 -5 1 0
81 5 1 0
81 -5 -1 0
-82 6 -2 0
-82 -6 2 0
82 6 2 0
82 -6 -2 0
-83 7 -3 0
-83 -7 3 0
83 7 3 0
83 -7 -3 0
-84 8 -4 0
-84 -8 4 0
84 8 4 0
84 -8 -4 0
-85 81 0
-85 82 0
-85 83 0
-85 84 0
85 -81 -82 -83 -84 0
-86 34 -35 0
-86 -34 35 0
86 34 35 0
86 -34 -35 0
85 87 0
-86 87 0
-87 -85 86 0
-88 5 -1 0
-88 -5 1 0
88 5 1 0
88 -5 -1 0
-89 6 -2 0
-89 -6 2 0
89 6 2 0
89 -6 -2 0
-90 7 -3 0
-90 -7 3 0
90 7 3 0
90 -7 -3 0
-91 8 -4 0
-91 -8 4 0
91 8 4 0
91 -8 -4 0
-92 88 0
-92 89 0
-92 90 0
-92 91 0
92 -88 -89 -90 -91 0
-93 33 -13 0
-93 -33 13 0
93 33 13 0
93 -33 -13 0
92 94 0
-93 94 0
-94 -92 93 0
-95 66 0
-95 73 0
-95 80 0
-95 87 0
-95 94 0
95 -66 -73 -80 -87 -94 0
59 0
95 0
373 0
-1 -374 0
-2 -374 0
1 2 374 0
-3 -375 0
-4 -375 0
3 4 375 0
374 -376 0
375 -376 0
-374 -375 376 0
-17 -377 0
-18 -377 0
17 18 377 0
-19 -378 0
-20 -378 0
19 20 378 0
-21 -379 0
-22 -379 0
21 22 379 0
378 -380 0
379 -380 0
-378 -379 380 0
377 -381 0
380 -381 0
-377 -380 381 0
25 -382 0
27 -382 0
-25 -27 382 0
29 -383 0
31 -383 0
-29 -31 383 0
382 -384 0
383 -384 0
-382 -383 384 0
45 -385 0
48 -385 0
-45 -48 385 0
-44 -386 0
-49 -386 0
44 49 386 0
41 -387 0
50 -387 0
-41 -50 387 0
-40 -388 0
-51 -388 0
40 51 388 0
37 -389 0
52 -389 0
-37 -52 389 0
-36 -390 0
-53 -390 0
36 53 390 0
32 -391 0
-55 -391 0
-32 55 391 0
23 -392 0
-56 -392 0
-23 56 392 0
1 -393 0
-5 -393 0
-1 5 393 0
-1 -394 0
5 -394 0
1 -5 394 0
-393 -395 0
-394 -395 0
393 394 395 0
2 -396 0
-6 -396 0
-2 6 396 0
-2 -397 0
6 -397 0
2 -6 397 0
-396 -398 0
-397 -398 0
396 397 398 0
3 -399 0
-7 -399 0
-3 7 399 0
-3 -400 0
7 -400 0
3 -7 400 0
-399 -401 0
-400 -401 0
399 400 401 0
4 -402 0
-8 -402 0
-4 8 402 0
-4 -403 0
8 -403 0
4 -8 403 0
-402 -404 0
-403 -404 0
402 403 404 0
60 -405 0
61 -405 0
-60 -61 405 0
62 -406 0
63 -406 0
-62 -63 406 0
405 -407 0
406 -407 0
-405 -406 407 0
-44 -408 0
45 -408 0
44 -45 408 0
1 -409 0
-60 -409 0
-1 60 409 0
395 -410 0
-409 -410 0
-395 409 410 0
67 -411 0
68 -411 0
-67 -68 411 0
69 -412 0
70 -412 0
-69 -70 412 0
411 -413 0
412 -413 0
-411 -412 413 0
-40 -414 0
41 -414 0
40 -41 414 0
74 -415 0
75 -415 0
-74 -75 415 0
76 -416 0
77 -416 0
-76 -77 416 0
415 -417 0
416 -417 0
-415 -416 417 0
81 -418 0
82 -418 0
-81 -82 418 0
83 -419 0
84 -419 0
-83 -84 419 0
418 -420 0
419 -420 0
-418 -419 420 0
-36 -421 0
37 -421 0
36 -37 421 0
88 -422 0
89 -422 0
-88 -89 422 0
90 -423 0
91 -423 0
-90 -91 423 0
422 -424 0
423 -424 0
-422 -423 424 0
